\Problem name: compact

Minimize
OBJROW: C
Subject To
ord(0,1):  - x(0,0) + x(0,1) >= 6
ord(0,2):  - x(0,1) + x(0,2) >= 4
ord(1,1):  - x(1,0) + x(1,2) >= 10
ord(1,2):  x(1,1) - x(1,2) >= 5
ord(2,1):  - x(2,1) + x(2,2) >= 6
ord(2,2):  x(2,0) - x(2,2) >= 7
triangle2(0,1,0):  y(0,1,0) + y(1,0,0) = 1
triangle2(0,1,1):  y(0,1,1) + y(1,0,1) = 1
triangle2(0,1,2):  y(0,1,2) + y(1,0,2) = 1
triangle2(0,2,0):  y(0,2,0) + y(2,0,0) = 1
triangle2(0,2,1):  y(0,2,1) + y(2,0,1) = 1
triangle2(0,2,2):  y(0,2,2) + y(2,0,2) = 1
triangle2(1,2,0):  y(1,2,0) + y(2,1,0) = 1
triangle2(1,2,1):  y(1,2,1) + y(2,1,1) = 1
triangle2(1,2,2):  y(1,2,2) + y(2,1,2) = 1
MCLinV(0,1,0):  x(0,0) - v(0,1,0) - x(1,0) = 10
MCLinV(1,0,0):  - x(0,0) - v(1,0,0) + x(1,0) = 6
MCLin1(0,1,0):  u(0,1,0) >= -0
MCLin2(0,1,0):  -51 y(1,0,0) - u(0,1,0) <= -0
MCLin3(0,1,0):  28 y(1,0,0) + v(0,1,0) - u(0,1,0) <= 28
MCLin4(0,1,0):  28 y(1,0,0) - u(0,1,0) >= -0
MCLin5(0,1,0):  -51 y(1,0,0) + v(0,1,0) - u(0,1,0) >= -51
MCLin6(1,0,0):  u(1,0,0) >= -0
MCLin7(1,0,0):  -44 y(0,1,0) - u(1,0,0) <= -0
MCLin8(1,0,0):  35 y(0,1,0) + v(1,0,0) - u(1,0,0) <= 35
MCLin9(1,0,0):  35 y(0,1,0) - u(1,0,0) >= -0
MCLin10(1,0,0):  -44 y(0,1,0) + v(1,0,0) - u(1,0,0) >= -44
MCLinV(0,1,1):  x(0,1) - v(0,1,1) - x(1,1) = 1
MCLinV(1,0,1):  - x(0,1) - v(1,0,1) + x(1,1) = 4
MCLin1(0,1,1):  u(0,1,1) >= -0
MCLin2(0,1,1):  -51 y(1,0,1) - u(0,1,1) <= -0
MCLin3(0,1,1):  28 y(1,0,1) + v(0,1,1) - u(0,1,1) <= 28
MCLin4(0,1,1):  28 y(1,0,1) - u(0,1,1) >= -0
MCLin5(0,1,1):  -51 y(1,0,1) + v(0,1,1) - u(0,1,1) >= -51
MCLin6(1,0,1):  u(1,0,1) >= -0
MCLin7(1,0,1):  -33 y(0,1,1) - u(1,0,1) <= -0
MCLin8(1,0,1):  46 y(0,1,1) + v(1,0,1) - u(1,0,1) <= 46
MCLin9(1,0,1):  46 y(0,1,1) - u(1,0,1) >= -0
MCLin10(1,0,1):  -33 y(0,1,1) + v(1,0,1) - u(1,0,1) >= -33
MCLinV(0,1,2):  x(0,2) - v(0,1,2) - x(1,2) = 5
MCLinV(1,0,2):  - x(0,2) - v(1,0,2) + x(1,2) = 9
MCLin1(0,1,2):  u(0,1,2) >= -0
MCLin2(0,1,2):  -46 y(1,0,2) - u(0,1,2) <= -0
MCLin3(0,1,2):  33 y(1,0,2) + v(0,1,2) - u(0,1,2) <= 33
MCLin4(0,1,2):  33 y(1,0,2) - u(0,1,2) >= -0
MCLin5(0,1,2):  -46 y(1,0,2) + v(0,1,2) - u(0,1,2) >= -46
MCLin6(1,0,2):  u(1,0,2) >= -0
MCLin7(1,0,2):  -47 y(0,1,2) - u(1,0,2) <= -0
MCLin8(1,0,2):  32 y(0,1,2) + v(1,0,2) - u(1,0,2) <= 32
MCLin9(1,0,2):  32 y(0,1,2) - u(1,0,2) >= -0
MCLin10(1,0,2):  -47 y(0,1,2) + v(1,0,2) - u(1,0,2) >= -47
MCLinV(0,2,0):  x(0,0) - v(0,2,0) - x(2,0) = 9
MCLinV(2,0,0):  - x(0,0) - v(2,0,0) + x(2,0) = 6
MCLin1(0,2,0):  u(0,2,0) >= -0
MCLin2(0,2,0):  -57 y(2,0,0) - u(0,2,0) <= -0
MCLin3(0,2,0):  16 y(2,0,0) + v(0,2,0) - u(0,2,0) <= 16
MCLin4(0,2,0):  16 y(2,0,0) - u(0,2,0) >= -0
MCLin5(0,2,0):  -57 y(2,0,0) + v(0,2,0) - u(0,2,0) >= -57
MCLin6(2,0,0):  u(2,0,0) >= -0
MCLin7(2,0,0):  -31 y(0,2,0) - u(2,0,0) <= -0
MCLin8(2,0,0):  42 y(0,2,0) + v(2,0,0) - u(2,0,0) <= 42
MCLin9(2,0,0):  42 y(0,2,0) - u(2,0,0) >= -0
MCLin10(2,0,0):  -31 y(0,2,0) + v(2,0,0) - u(2,0,0) >= -31
MCLinV(0,2,1):  x(0,1) - v(0,2,1) - x(2,1) = 6
MCLinV(2,0,1):  - x(0,1) - v(2,0,1) + x(2,1) = 4
MCLin1(0,2,1):  u(0,2,1) >= -0
MCLin2(0,2,1):  -35 y(2,0,1) - u(0,2,1) <= -0
MCLin3(0,2,1):  38 y(2,0,1) + v(0,2,1) - u(0,2,1) <= 38
MCLin4(0,2,1):  38 y(2,0,1) - u(0,2,1) >= -0
MCLin5(0,2,1):  -35 y(2,0,1) + v(0,2,1) - u(0,2,1) >= -35
MCLin6(2,0,1):  u(2,0,1) >= -0
MCLin7(2,0,1):  -48 y(0,2,1) - u(2,0,1) <= -0
MCLin8(2,0,1):  25 y(0,2,1) + v(2,0,1) - u(2,0,1) <= 25
MCLin9(2,0,1):  25 y(0,2,1) - u(2,0,1) >= -0
MCLin10(2,0,1):  -48 y(0,2,1) + v(2,0,1) - u(2,0,1) >= -48
MCLinV(0,2,2):  x(0,2) - v(0,2,2) - x(2,2) = 7
MCLinV(2,0,2):  - x(0,2) - v(2,0,2) + x(2,2) = 9
MCLin1(0,2,2):  u(0,2,2) >= -0
MCLin2(0,2,2):  -38 y(2,0,2) - u(0,2,2) <= -0
MCLin3(0,2,2):  35 y(2,0,2) + v(0,2,2) - u(0,2,2) <= 35
MCLin4(0,2,2):  35 y(2,0,2) - u(0,2,2) >= -0
MCLin5(0,2,2):  -38 y(2,0,2) + v(0,2,2) - u(0,2,2) >= -38
MCLin6(2,0,2):  u(2,0,2) >= -0
MCLin7(2,0,2):  -51 y(0,2,2) - u(2,0,2) <= -0
MCLin8(2,0,2):  22 y(0,2,2) + v(2,0,2) - u(2,0,2) <= 22
MCLin9(2,0,2):  22 y(0,2,2) - u(2,0,2) >= -0
MCLin10(2,0,2):  -51 y(0,2,2) + v(2,0,2) - u(2,0,2) >= -51
MCLinV(1,2,0):  x(1,0) - v(1,2,0) - x(2,0) = 9
MCLinV(2,1,0):  - x(1,0) - v(2,1,0) + x(2,0) = 10
MCLin1(1,2,0):  u(1,2,0) >= -0
MCLin2(1,2,0):  -57 y(2,1,0) - u(1,2,0) <= -0
MCLin3(1,2,0):  19 y(2,1,0) + v(1,2,0) - u(1,2,0) <= 19
MCLin4(1,2,0):  19 y(2,1,0) - u(1,2,0) >= -0
MCLin5(1,2,0):  -57 y(2,1,0) + v(1,2,0) - u(1,2,0) >= -57
MCLin6(2,1,0):  u(2,1,0) >= -0
MCLin7(2,1,0):  -38 y(1,2,0) - u(2,1,0) <= -0
MCLin8(2,1,0):  38 y(1,2,0) + v(2,1,0) - u(2,1,0) <= 38
MCLin9(2,1,0):  38 y(1,2,0) - u(2,1,0) >= -0
MCLin10(2,1,0):  -38 y(1,2,0) + v(2,1,0) - u(2,1,0) >= -38
MCLinV(1,2,1):  x(1,1) - v(1,2,1) - x(2,1) = 6
MCLinV(2,1,1):  - x(1,1) - v(2,1,1) + x(2,1) = 1
MCLin1(1,2,1):  u(1,2,1) >= -0
MCLin2(1,2,1):  -26 y(2,1,1) - u(1,2,1) <= -0
MCLin3(1,2,1):  50 y(2,1,1) + v(1,2,1) - u(1,2,1) <= 50
MCLin4(1,2,1):  50 y(2,1,1) - u(1,2,1) >= -0
MCLin5(1,2,1):  -26 y(2,1,1) + v(1,2,1) - u(1,2,1) >= -26
MCLin6(2,1,1):  u(2,1,1) >= -0
MCLin7(2,1,1):  -57 y(1,2,1) - u(2,1,1) <= -0
MCLin8(2,1,1):  19 y(1,2,1) + v(2,1,1) - u(2,1,1) <= 19
MCLin9(2,1,1):  19 y(1,2,1) - u(2,1,1) >= -0
MCLin10(2,1,1):  -57 y(1,2,1) + v(2,1,1) - u(2,1,1) >= -57
MCLinV(1,2,2):  x(1,2) - v(1,2,2) - x(2,2) = 7
MCLinV(2,1,2):  - x(1,2) - v(2,1,2) + x(2,2) = 5
MCLin1(1,2,2):  u(1,2,2) >= -0
MCLin2(1,2,2):  -38 y(2,1,2) - u(1,2,2) <= -0
MCLin3(1,2,2):  38 y(2,1,2) + v(1,2,2) - u(1,2,2) <= 38
MCLin4(1,2,2):  38 y(2,1,2) - u(1,2,2) >= -0
MCLin5(1,2,2):  -38 y(2,1,2) + v(1,2,2) - u(1,2,2) >= -38
MCLin6(2,1,2):  u(2,1,2) >= -0
MCLin7(2,1,2):  -50 y(1,2,2) - u(2,1,2) <= -0
MCLin8(2,1,2):  26 y(1,2,2) + v(2,1,2) - u(2,1,2) <= 26
MCLin9(2,1,2):  26 y(1,2,2) - u(2,1,2) >= -0
MCLin10(2,1,2):  -50 y(1,2,2) + v(2,1,2) - u(2,1,2) >= -50
makespan(0):  C - x(0,2) >= 9
makespan(1):  C - x(1,1) >= 1
makespan(2):  C - x(2,0) >= 9
Bounds
 0 <= C <= 57
 0 <= x(0,0) <= 38
 0 <= y(0,1,0) <= 1
 0 <= y(1,0,0) <= 1
 -51 <= v(0,1,0) <= 28
 -44 <= v(1,0,0) <= 35
 -570 <= u(0,1,0)
 -570 <= u(1,0,0)
 0 <= y(0,2,0) <= 1
 0 <= y(2,0,0) <= 1
 -57 <= v(0,2,0) <= 16
 -31 <= v(2,0,0) <= 42
 -570 <= u(0,2,0)
 -570 <= u(2,0,0)
 0 <= x(1,0) <= 41
 0 <= y(1,2,0) <= 1
 0 <= y(2,1,0) <= 1
 -57 <= v(1,2,0) <= 19
 -38 <= v(2,1,0) <= 38
 -570 <= u(1,2,0)
 -570 <= u(2,1,0)
 13 <= x(2,0) <= 48
 6 <= x(0,1) <= 44
 0 <= y(0,1,1) <= 1
 0 <= y(1,0,1) <= 1
 -51 <= v(0,1,1) <= 28
 -33 <= v(1,0,1) <= 46
 -570 <= u(0,1,1)
 -570 <= u(1,0,1)
 0 <= y(0,2,1) <= 1
 0 <= y(2,0,1) <= 1
 -35 <= v(0,2,1) <= 38
 -48 <= v(2,0,1) <= 25
 -570 <= u(0,2,1)
 -570 <= u(2,0,1)
 15 <= x(1,1) <= 56
 0 <= y(1,2,1) <= 1
 0 <= y(2,1,1) <= 1
 -26 <= v(1,2,1) <= 50
 -57 <= v(2,1,1) <= 19
 -570 <= u(1,2,1)
 -570 <= u(2,1,1)
 0 <= x(2,1) <= 35
 10 <= x(0,2) <= 48
 0 <= y(0,1,2) <= 1
 0 <= y(1,0,2) <= 1
 -46 <= v(0,1,2) <= 33
 -47 <= v(1,0,2) <= 32
 -570 <= u(0,1,2)
 -570 <= u(1,0,2)
 0 <= y(0,2,2) <= 1
 0 <= y(2,0,2) <= 1
 -38 <= v(0,2,2) <= 35
 -51 <= v(2,0,2) <= 22
 -570 <= u(0,2,2)
 -570 <= u(2,0,2)
 10 <= x(1,2) <= 51
 0 <= y(1,2,2) <= 1
 0 <= y(2,1,2) <= 1
 -38 <= v(1,2,2) <= 38
 -50 <= v(2,1,2) <= 26
 -570 <= u(1,2,2)
 -570 <= u(2,1,2)
 6 <= x(2,2) <= 41
Integers
C x(0,0) y(0,1,0) y(1,0,0) v(0,1,0) v(1,0,0) u(0,1,0) u(1,0,0) y(0,2,0) y(2,0,0) 
v(0,2,0) v(2,0,0) u(0,2,0) u(2,0,0) x(1,0) y(1,2,0) y(2,1,0) v(1,2,0) v(2,1,0) u(1,2,0) 
u(2,1,0) x(2,0) x(0,1) y(0,1,1) y(1,0,1) v(0,1,1) v(1,0,1) u(0,1,1) u(1,0,1) y(0,2,1) 
y(2,0,1) v(0,2,1) v(2,0,1) u(0,2,1) u(2,0,1) x(1,1) y(1,2,1) y(2,1,1) v(1,2,1) v(2,1,1) 
u(1,2,1) u(2,1,1) x(2,1) x(0,2) y(0,1,2) y(1,0,2) v(0,1,2) v(1,0,2) u(0,1,2) u(1,0,2) 
y(0,2,2) y(2,0,2) v(0,2,2) v(2,0,2) u(0,2,2) u(2,0,2) x(1,2) y(1,2,2) y(2,1,2) v(1,2,2) 
v(2,1,2) u(1,2,2) u(2,1,2) x(2,2) 
End
